
******************************************************************************
This program contains Ipopt, a library for large-scale nonlinear optimization.
 Ipopt is released as open source code under the Eclipse Public License (EPL).
         For more information visit http://projects.coin-or.org/Ipopt
******************************************************************************

This is Ipopt version 3.12.6, running with linear solver ma57.

Number of nonzeros in equality constraint Jacobian...:    12500
Number of nonzeros in inequality constraint Jacobian.:        0
Number of nonzeros in Lagrangian Hessian.............:    22506

Total number of variables............................:     5003
                     variables with only lower bounds:        0
                variables with lower and upper bounds:        0
                     variables with only upper bounds:        0
Total number of equality constraints.................:     2500
Total number of inequality constraints...............:        0
        inequality constraints with only lower bounds:        0
   inequality constraints with lower and upper bounds:        0
        inequality constraints with only upper bounds:        0

iter    objective    inf_pr   inf_du lg(mu)  ||d||  lg(rg) alpha_du alpha_pr  ls
   0  0.0000000e+00 4.67e+02 0.00e+00  -1.0 0.00e+00    -  0.00e+00 0.00e+00   0
   1  6.3629855e+01 1.59e+02 1.24e+02  -1.0 1.29e+00    -  1.00e+00 5.00e-01h  2
   2  6.8053134e+02 3.60e+01 1.15e+03  -1.0 7.25e-01    -  1.00e+00 1.00e+00h  1
   3  7.6245058e+02 1.54e+00 5.04e+01  -1.0 2.71e-01    -  1.00e+00 1.00e+00h  1
   4  7.6207309e+02 2.69e-02 1.59e+00  -1.0 3.17e-02    -  1.00e+00 1.00e+00h  1
   5  7.6206432e+02 4.05e-06 9.71e-05  -1.0 5.69e-04    -  1.00e+00 1.00e+00h  1
   6  7.6206432e+02 1.17e-12 1.62e-12  -5.7 2.48e-07    -  1.00e+00 1.00e+00h  1

Number of Iterations....: 6

                                   (scaled)                 (unscaled)
Objective...............:   7.6206432193088995e+02    7.6206432193088995e+02
Dual infeasibility......:   1.6218137943724287e-12    1.6218137943724287e-12
Constraint violation....:   1.1652900866465643e-12    1.1652900866465643e-12
Complementarity.........:   0.0000000000000000e+00    0.0000000000000000e+00
Overall NLP error.......:   1.6218137943724287e-12    1.6218137943724287e-12


Number of objective function evaluations             = 10
Number of objective gradient evaluations             = 7
Number of equality constraint evaluations            = 10
Number of inequality constraint evaluations          = 0
Number of equality constraint Jacobian evaluations   = 7
Number of inequality constraint Jacobian evaluations = 0
Number of Lagrangian Hessian evaluations             = 6
Total CPU secs in IPOPT (w/o function evaluations)   =      0.020
Total CPU secs in NLP function evaluations           =      0.027

EXIT: Optimal Solution Found.

************************ CUTEst statistics ************************


 Package used            :  IPOPT
 Problem                 :  ORTHREGD  
 # variables             =            5003
 # constraints           =            2500
 # objective functions   =        0.1800000E+02
 # objective gradients   =        0.8000000E+01
 # objective Hessians    =        0.7000000E+01
 # Hessian-vector prdct  =        0.0000000E+00
 # constraints functions =        0.1900000E+02
 # constraints gradients =        0.9000000E+01
 # constraints Hessians  =        0.7000000E+01
 Exit code               =               0
 Final f                 =   0.7620643E+03
 Set up time             =            0.41 seconds
 Solve time              =            0.05 seconds


******************************************************************

System Time =       0.0489999987 s.
